set VV := 0 1 2 3 4 5 6 7 8 9 10 11 12 13 14 15 16 17 18 19 20 21 22 23 24 ;
set VS := 0 1 2 3 4 5 6 7 8 9 10 11 12 13 14 15 16 17 18 19 20 21 22 23 24 25 26 27 28 29 30 31 32 33 34 35 36 37 38 39 40 41 42 43 44 45 46 47 48 49 50 51 52 53 54 ;
param cv := 
0 25
1 19
2 16
3 18
4 10
5 20
6 25
7 21
8 20
9 25
10 20
11 11
12 16
13 16
14 12
15 16
16 25
17 23
18 13
19 21
20 12
21 14
22 22
23 21
24 18
;
param cs := 
0 40
1 20
2 31
3 33
4 23
5 39
6 33
7 25
8 39
9 36
10 38
11 37
12 25
13 31
14 25
15 31
16 28
17 30
18 28
19 21
20 32
21 37
22 24
23 23
24 33
25 40
26 20
27 37
28 29
29 20
30 39
31 22
32 29
33 34
34 38
35 27
36 28
37 21
38 22
39 22
40 22
41 26
42 30
43 35
44 27
45 28
46 23
47 26
48 31
49 26
50 37
51 36
52 21
53 34
54 25
;
param bv:	 0 1 2 3 4 5 6 7 8 9 10 11 12 13 14 15 16 17 18 19 20 21 22 23 24 := 
		0 0 0 13 0 0 0 17 0 0 0 0 0 0 0 0 0 19 0 0 0 0 0 0 23 0 
		1 0 0 0 0 0 0 0 0 0 16 0 0 0 0 0 0 0 0 0 23 0 0 0 0 0 
		2 0 0 0 0 0 0 0 0 0 0 0 0 0 0 0 0 0 0 0 0 0 0 0 0 0 
		3 0 0 0 0 0 0 0 0 0 0 0 0 0 0 0 0 0 0 0 0 24 0 0 0 14 
		4 0 0 0 0 0 0 0 0 18 0 0 24 0 0 0 0 0 0 0 16 0 0 0 0 0 
		5 0 0 0 0 0 0 20 0 0 0 0 0 0 0 0 25 0 0 0 0 22 0 0 0 0 
		6 0 0 0 0 0 0 0 0 0 0 0 0 0 0 0 0 0 0 0 0 0 19 0 0 0 
		7 0 0 0 0 0 0 0 0 0 0 0 0 0 0 24 0 0 17 0 0 23 15 0 12 0 
		8 0 0 0 0 0 0 0 0 0 0 0 10 0 0 0 22 0 12 0 0 0 0 0 0 0 
		9 0 0 0 0 0 0 0 0 0 0 24 0 0 0 0 0 11 0 0 0 0 0 0 0 0 
		10 0 0 0 0 0 0 0 0 0 0 0 0 18 16 0 0 0 0 0 0 0 0 0 0 0 
		11 0 0 0 0 0 0 0 0 0 0 0 0 0 0 10 0 0 0 22 0 0 0 0 23 0 
		12 0 0 0 0 0 0 0 0 0 0 0 0 0 0 0 0 0 0 14 0 0 0 0 0 0 
		13 0 0 0 0 0 0 0 0 0 0 0 0 0 0 0 0 0 0 0 0 0 0 16 0 0 
		14 0 0 0 0 0 0 0 0 0 0 0 0 0 0 0 0 25 12 0 0 0 0 0 0 15 
		15 0 0 0 0 0 0 0 0 0 0 0 0 0 0 0 0 10 0 0 0 0 0 0 0 0 
		16 0 0 0 0 0 0 0 0 0 0 0 0 0 0 0 0 0 0 0 0 0 0 0 0 0 
		17 0 0 0 0 0 0 0 0 0 0 0 0 0 0 0 0 0 0 0 0 0 0 0 0 0 
		18 0 0 0 0 0 0 0 0 0 0 0 0 0 0 0 0 0 0 0 0 0 0 0 0 0 
		19 0 0 0 0 0 0 0 0 0 0 0 0 0 0 0 0 0 0 0 0 0 13 0 0 0 
		20 0 0 0 0 0 0 0 0 0 0 0 0 0 0 0 0 0 0 0 0 0 0 20 0 0 
		21 0 0 0 0 0 0 0 0 0 0 0 0 0 0 0 0 0 0 0 0 0 0 0 0 0 
		22 0 0 0 0 0 0 0 0 0 0 0 0 0 0 0 0 0 0 0 0 0 0 0 0 0 
		23 0 0 0 0 0 0 0 0 0 0 0 0 0 0 0 0 0 0 0 0 0 0 0 0 0 
		24 0 0 0 0 0 0 0 0 0 0 0 0 0 0 0 0 0 0 0 0 0 0 0 0 0 
;
param bs:	 0 1 2 3 4 5 6 7 8 9 10 11 12 13 14 15 16 17 18 19 20 21 22 23 24 25 26 27 28 29 30 31 32 33 34 35 36 37 38 39 40 41 42 43 44 45 46 47 48 49 50 51 52 53 54 := 
		0 0 0 0 0 0 0 39 39 0 0 0 0 0 0 0 0 0 30 0 0 0 0 0 23 0 0 0 0 0 0 0 0 0 0 0 0 0 0 0 0 0 0 0 33 0 0 0 0 0 30 0 36 0 0 0 
		1 0 0 0 0 0 0 0 0 0 0 22 0 0 0 0 0 40 0 0 26 0 0 0 0 0 35 0 0 34 0 0 0 0 0 0 0 0 0 0 0 0 0 0 0 0 0 0 0 0 34 0 0 0 0 0 
		2 0 0 0 0 0 0 0 0 0 0 0 0 32 0 0 0 0 0 0 0 0 0 35 39 0 20 0 0 0 0 0 0 0 35 0 0 0 0 0 0 0 0 0 0 0 0 21 0 0 0 0 0 0 0 0 
		3 0 0 0 0 0 0 0 0 0 0 0 0 0 0 0 0 0 0 0 0 31 0 0 0 0 25 0 0 0 0 0 0 0 0 0 0 0 34 0 0 0 0 0 0 0 0 0 0 0 0 29 0 0 0 0 
		4 0 0 0 0 0 0 0 0 0 30 0 0 0 0 0 0 0 0 0 0 28 0 0 0 0 0 0 0 0 20 0 0 0 0 0 0 0 0 0 0 0 0 0 0 0 0 0 30 0 0 0 0 22 0 0 
		5 0 0 0 0 0 0 0 0 0 0 0 0 0 0 0 0 0 0 0 0 0 0 23 0 0 0 0 0 0 0 0 0 0 0 0 0 0 0 39 0 0 0 22 0 0 0 0 0 0 0 0 0 0 0 0 
		6 39 0 0 0 0 0 0 0 0 0 0 0 25 0 0 0 0 0 0 0 0 0 25 37 0 0 0 0 0 0 0 0 0 0 0 0 0 0 0 0 0 40 0 39 40 0 0 0 0 27 0 0 0 0 0 
		7 39 0 0 0 0 0 0 0 0 22 0 0 0 0 0 0 0 0 0 0 0 0 0 0 34 0 26 0 0 0 0 0 0 0 0 0 0 29 35 0 0 0 0 0 26 0 0 0 0 0 0 0 23 0 0 
		8 0 0 0 0 0 0 0 0 0 37 0 0 0 0 0 0 0 0 0 0 0 0 0 0 0 0 0 0 0 0 0 0 0 0 0 0 30 0 0 0 27 0 0 0 0 0 0 25 0 0 23 0 0 0 0 
		9 0 0 0 0 30 0 0 22 37 0 0 0 0 0 0 0 0 0 0 0 0 0 0 0 0 0 0 0 0 0 26 20 0 0 0 0 38 0 0 0 0 29 0 0 21 0 0 0 0 0 0 0 27 0 0 
		10 0 22 0 0 0 0 0 0 0 0 0 0 0 0 0 0 0 0 0 0 38 0 0 0 0 0 0 0 0 0 0 0 0 37 0 20 0 23 0 0 0 0 0 0 0 0 0 37 0 0 0 0 0 0 0 
		11 0 0 0 0 0 0 0 0 0 0 0 0 0 0 0 0 0 0 0 0 0 0 0 0 34 0 0 0 0 0 0 0 0 0 0 0 0 0 0 0 0 0 0 0 0 38 0 0 0 0 0 0 0 0 32 
		12 0 0 32 0 0 0 25 0 0 0 0 0 0 35 0 0 0 0 0 0 20 26 0 27 0 0 0 0 29 0 0 0 0 0 0 40 0 0 0 0 0 36 0 0 0 0 0 0 0 0 0 0 23 0 0 
		13 0 0 0 0 0 0 0 0 0 0 0 0 35 0 0 0 0 0 0 0 0 0 0 0 0 0 0 0 0 0 0 0 0 0 36 0 0 0 0 0 0 0 0 0 0 0 0 0 0 0 0 0 30 0 0 
		14 0 0 0 0 0 0 0 0 0 0 0 0 0 0 0 0 35 0 35 0 0 0 0 0 0 0 0 40 0 0 0 0 0 0 0 38 0 0 0 36 0 0 0 0 0 0 0 0 0 0 0 0 0 0 0 
		15 0 0 0 0 0 0 0 0 0 0 0 0 0 0 0 0 30 0 0 0 0 0 0 0 0 0 0 0 0 21 0 0 0 29 0 0 0 0 0 0 0 0 0 0 0 0 0 0 0 0 0 0 0 34 0 
		16 0 40 0 0 0 0 0 0 0 0 0 0 0 0 35 30 0 22 0 0 0 0 0 0 20 0 0 0 0 0 0 0 0 0 29 0 0 0 0 0 0 0 0 0 24 0 0 0 0 0 0 0 0 0 0 
		17 30 0 0 0 0 0 0 0 0 0 0 0 0 0 0 0 22 0 0 36 0 32 0 0 0 0 34 32 21 0 0 0 0 0 0 0 0 0 0 0 0 0 0 0 33 0 0 0 0 33 0 0 0 0 0 
		18 0 0 0 0 0 0 0 0 0 0 0 0 0 0 35 0 0 0 0 0 40 0 0 0 0 0 0 20 0 0 0 0 0 0 0 0 0 0 0 0 0 0 0 0 0 0 0 0 21 0 0 0 0 22 0 
		19 0 26 0 0 0 0 0 0 0 0 0 0 0 0 0 0 0 36 0 0 0 0 0 0 0 0 0 0 0 0 0 0 0 21 0 0 0 0 0 0 0 0 0 0 0 0 0 0 0 0 0 0 0 0 36 
		20 0 0 0 31 28 0 0 0 0 0 38 0 20 0 0 0 0 0 40 0 0 20 32 0 37 0 0 0 0 0 0 0 0 0 30 0 0 0 0 0 26 0 0 0 0 0 0 0 0 0 0 0 0 0 0 
		21 0 0 0 0 0 0 0 0 0 0 0 0 26 0 0 0 0 32 0 0 20 0 0 0 0 0 0 0 0 0 0 0 0 0 0 0 0 0 0 0 0 0 0 0 0 0 0 0 0 27 0 0 0 0 0 
		22 0 0 35 0 0 23 25 0 0 0 0 0 0 0 0 0 0 0 0 0 32 0 0 0 26 0 29 0 0 0 0 0 0 40 0 0 0 0 0 0 0 0 0 0 0 0 32 0 26 0 22 20 0 0 0 
		23 23 0 39 0 0 0 37 0 0 0 0 0 27 0 0 0 0 0 0 0 0 0 0 0 20 23 0 0 0 0 0 0 0 0 0 0 0 0 0 0 0 0 0 0 0 0 34 0 33 0 0 0 0 0 0 
		24 0 0 0 0 0 0 0 34 0 0 0 34 0 0 0 0 20 0 0 0 37 0 26 20 0 0 0 0 28 0 0 0 0 0 0 0 0 0 0 28 0 0 0 24 0 0 0 27 0 0 0 0 21 0 0 
		25 0 35 20 25 0 0 0 0 0 0 0 0 0 0 0 0 0 0 0 0 0 0 0 23 0 0 0 0 0 0 0 0 0 0 0 0 0 31 0 0 0 34 0 0 0 0 0 22 0 0 24 0 0 0 0 
		26 0 0 0 0 0 0 0 26 0 0 0 0 0 0 0 0 0 34 0 0 0 0 29 0 0 0 0 0 0 0 23 0 0 0 0 0 0 0 0 27 0 0 24 0 0 0 0 0 0 0 0 0 0 0 0 
		27 0 0 0 0 0 0 0 0 0 0 0 0 0 0 40 0 0 32 20 0 0 0 0 0 0 0 0 0 0 0 0 25 0 0 0 0 0 0 0 0 39 0 0 0 0 0 0 32 0 0 0 0 0 22 0 
		28 0 34 0 0 0 0 0 0 0 0 0 0 29 0 0 0 0 21 0 0 0 0 0 0 28 0 0 0 0 0 0 0 0 0 0 0 0 0 0 0 0 0 0 0 0 0 0 0 0 0 0 0 0 0 0 
		29 0 0 0 0 20 0 0 0 0 0 0 0 0 0 0 21 0 0 0 0 0 0 0 0 0 0 0 0 0 0 0 0 0 0 0 26 0 0 0 0 0 0 30 0 20 0 0 0 0 0 0 0 26 0 0 
		30 0 0 0 0 0 0 0 0 0 26 0 0 0 0 0 0 0 0 0 0 0 0 0 0 0 0 23 0 0 0 0 0 0 0 0 0 0 0 21 0 0 0 0 0 0 0 0 0 0 0 0 0 0 0 0 
		31 0 0 0 0 0 0 0 0 0 20 0 0 0 0 0 0 0 0 0 0 0 0 0 0 0 0 0 25 0 0 0 0 0 0 0 0 0 0 0 0 0 0 0 0 39 0 0 0 0 0 0 0 40 0 0 
		32 0 0 0 0 0 0 0 0 0 0 0 0 0 0 0 0 0 0 0 0 0 0 0 0 0 0 0 0 0 0 0 0 0 0 0 31 0 0 22 0 0 28 0 0 0 0 0 0 0 0 34 0 0 0 0 
		33 0 0 35 0 0 0 0 0 0 0 37 0 0 0 0 29 0 0 0 21 0 0 40 0 0 0 0 0 0 0 0 0 0 0 0 0 0 0 0 0 0 0 0 0 0 0 22 0 0 0 0 0 32 0 0 
		34 0 0 0 0 0 0 0 0 0 0 0 0 0 36 0 0 29 0 0 0 30 0 0 0 0 0 0 0 0 0 0 0 0 0 0 0 0 0 0 0 0 0 0 36 0 0 0 36 0 0 0 26 0 0 0 
		35 0 0 0 0 0 0 0 0 0 0 20 0 40 0 38 0 0 0 0 0 0 0 0 0 0 0 0 0 0 26 0 0 31 0 0 0 0 0 0 0 0 0 0 24 23 0 0 0 0 0 30 0 38 0 0 
		36 0 0 0 0 0 0 0 0 30 38 0 0 0 0 0 0 0 0 0 0 0 0 0 0 0 0 0 0 0 0 0 0 0 0 0 0 0 0 0 0 0 0 0 0 0 0 0 0 0 0 0 0 0 0 0 
		37 0 0 0 34 0 0 0 29 0 0 23 0 0 0 0 0 0 0 0 0 0 0 0 0 0 31 0 0 0 0 0 0 0 0 0 0 0 0 0 0 30 0 0 0 0 0 0 0 37 0 0 0 0 0 0 
		38 0 0 0 0 0 39 0 35 0 0 0 0 0 0 0 0 0 0 0 0 0 0 0 0 0 0 0 0 0 0 21 0 22 0 0 0 0 0 0 0 20 0 0 0 38 0 0 0 0 0 0 22 0 0 0 
		39 0 0 0 0 0 0 0 0 0 0 0 0 0 0 36 0 0 0 0 0 0 0 0 0 28 0 27 0 0 0 0 0 0 0 0 0 0 0 0 0 0 22 0 0 0 0 0 0 0 0 0 0 0 0 0 
		40 0 0 0 0 0 0 0 0 27 0 0 0 0 0 0 0 0 0 0 0 26 0 0 0 0 0 0 39 0 0 0 0 0 0 0 0 0 30 20 0 0 0 0 0 0 0 0 0 0 39 22 22 0 0 0 
		41 0 0 0 0 0 0 40 0 0 29 0 0 36 0 0 0 0 0 0 0 0 0 0 0 0 34 0 0 0 0 0 0 28 0 0 0 0 0 0 22 0 0 0 0 26 0 0 0 0 0 0 0 0 0 40 
		42 0 0 0 0 0 22 0 0 0 0 0 0 0 0 0 0 0 0 0 0 0 0 0 0 0 0 24 0 0 30 0 0 0 0 0 0 0 0 0 0 0 0 0 0 0 0 0 0 0 0 0 0 0 0 0 
		43 33 0 0 0 0 0 39 0 0 0 0 0 0 0 0 0 0 0 0 0 0 0 0 0 24 0 0 0 0 0 0 0 0 0 36 24 0 0 0 0 0 0 0 0 0 0 0 0 0 33 0 37 0 0 0 
		44 0 0 0 0 0 0 40 26 0 21 0 0 0 0 0 0 24 33 0 0 0 0 0 0 0 0 0 0 0 20 0 39 0 0 0 23 0 0 38 0 0 26 0 0 0 0 0 0 0 0 0 25 0 0 0 
		45 0 0 0 0 0 0 0 0 0 0 0 38 0 0 0 0 0 0 0 0 0 0 0 0 0 0 0 0 0 0 0 0 0 0 0 0 0 0 0 0 0 0 0 0 0 0 0 0 0 25 0 0 0 0 0 
		46 0 0 21 0 0 0 0 0 0 0 0 0 0 0 0 0 0 0 0 0 0 0 32 34 0 0 0 0 0 0 0 0 0 22 0 0 0 0 0 0 0 0 0 0 0 0 0 0 0 0 0 33 32 0 0 
		47 0 0 0 0 30 0 0 0 25 0 37 0 0 0 0 0 0 0 0 0 0 0 0 0 27 22 0 32 0 0 0 0 0 0 36 0 0 0 0 0 0 0 0 0 0 0 0 0 0 0 0 0 0 36 0 
		48 0 0 0 0 0 0 0 0 0 0 0 0 0 0 0 0 0 0 21 0 0 0 26 33 0 0 0 0 0 0 0 0 0 0 0 0 0 37 0 0 0 0 0 0 0 0 0 0 0 0 0 0 0 0 0 
		49 30 34 0 0 0 0 27 0 0 0 0 0 0 0 0 0 0 33 0 0 0 27 0 0 0 0 0 0 0 0 0 0 0 0 0 0 0 0 0 0 39 0 0 33 0 25 0 0 0 0 0 0 0 0 0 
		50 0 0 0 29 0 0 0 0 23 0 0 0 0 0 0 0 0 0 0 0 0 0 22 0 0 24 0 0 0 0 0 0 34 0 0 30 0 0 0 0 22 0 0 0 0 0 0 0 0 0 0 21 0 0 0 
		51 36 0 0 0 0 0 0 0 0 0 0 0 0 0 0 0 0 0 0 0 0 0 20 0 0 0 0 0 0 0 0 0 0 0 26 0 0 0 22 0 22 0 0 37 25 0 33 0 0 0 21 0 0 0 34 
		52 0 0 0 0 22 0 0 23 0 27 0 0 23 30 0 0 0 0 0 0 0 0 0 0 21 0 0 0 0 26 0 40 0 32 0 38 0 0 0 0 0 0 0 0 0 0 32 0 0 0 0 0 0 33 0 
		53 0 0 0 0 0 0 0 0 0 0 0 0 0 0 0 34 0 0 22 0 0 0 0 0 0 0 0 22 0 0 0 0 0 0 0 0 0 0 0 0 0 0 0 0 0 0 0 36 0 0 0 0 33 0 0 
		54 0 0 0 0 0 0 0 0 0 0 0 32 0 0 0 0 0 0 0 36 0 0 0 0 0 0 0 0 0 0 0 0 0 0 0 0 0 0 0 0 0 40 0 0 0 0 0 0 0 0 0 34 0 0 0 
;
